n = 24;
lu = [|-545, 196
      |-138, 48
      |-490, 393
      |-505, -53
      |50, 292
      |-380, -322
      |-173, 473
      |-206, 70
      |158, 547
      |385, 476
      |-364, 498
      |-375, 153
      |147, 272
      |-247, -189
      |-428, 367
      |-432, 250
      |-434, 478
      |-494, -316
      |-224, 534
      |-418, -124
      |292, 570
      |316, 339
      |435, 457
      |329, 412|];
